Set parameter Username
Set parameter LicenseID to value 762805
Set parameter TokenServer to value "br017.ib.bridges2.psc.edu"
Set parameter LogFile to value "result1354/grblog_r384.ib.bridges2.psc.edu_N-1_PSPS_SpanFalse_FlowBCINC_1354_inst1.txt"
Set parameter PreCrush to value 1
Gurobi Optimizer version 11.0.2 build v11.0.2rc0 (linux64 - "Red Hat Enterprise Linux 8.10 (Ootpa)")

CPU model: AMD EPYC 7742 64-Core Processor, instruction set [SSE2|AVX|AVX2]
Thread count: 128 physical cores, 128 logical processors, using up to 32 threads

Optimize a model with 4320975 rows, 5138851 columns and 21471019 nonzeros
Model fingerprint: 0x217f33a4
Variable types: 5135506 continuous, 3345 integer (3345 binary)
Coefficient statistics:
  Matrix range     [1e+00, 3e+03]
  Objective range  [1e+00, 1e+01]
  Bounds range     [1e+00, 1e+00]
  RHS range        [1e+00, 4e+04]
Presolve removed 5696 rows and 6980 columns (presolve time = 6s) ...
Presolve removed 5696 rows and 6980 columns (presolve time = 11s) ...
Presolve removed 626187 rows and 1247962 columns (presolve time = 15s) ...
Presolve removed 1245715 rows and 1247962 columns (presolve time = 20s) ...
Presolve removed 1245715 rows and 1248901 columns (presolve time = 25s) ...
Presolve removed 1245715 rows and 1248901 columns (presolve time = 30s) ...
Presolve removed 1245715 rows and 1248901 columns (presolve time = 35s) ...
Presolve removed 1245715 rows and 1248901 columns (presolve time = 40s) ...
Presolve removed 1247593 rows and 1248901 columns (presolve time = 45s) ...
Presolve removed 1247618 rows and 1330421 columns (presolve time = 50s) ...
Presolve removed 1326579 rows and 1409392 columns (presolve time = 55s) ...
Presolve removed 1326579 rows and 1409392 columns (presolve time = 60s) ...
Presolve removed 1326579 rows and 1409392 columns (presolve time = 65s) ...
Presolve removed 1326676 rows and 1409392 columns (presolve time = 71s) ...
Presolve removed 1403960 rows and 1409392 columns (presolve time = 76s) ...
Presolve removed 1414364 rows and 1434088 columns (presolve time = 80s) ...
Presolve removed 1423447 rows and 1434102 columns (presolve time = 85s) ...
Presolve removed 1423480 rows and 1436755 columns (presolve time = 90s) ...
Presolve removed 1423509 rows and 1436761 columns (presolve time = 96s) ...
Presolve removed 1424811 rows and 1439362 columns (presolve time = 100s) ...
Presolve removed 1424811 rows and 1440652 columns (presolve time = 105s) ...
Presolve removed 1424816 rows and 1440652 columns (presolve time = 110s) ...
Presolve removed 1424818 rows and 1440862 columns (presolve time = 115s) ...
Presolve removed 1425094 rows and 1440900 columns (presolve time = 120s) ...
Presolve removed 1425094 rows and 1440932 columns (presolve time = 125s) ...
Presolve removed 1427958 rows and 1440933 columns (presolve time = 130s) ...
Presolve removed 1427958 rows and 1440933 columns (presolve time = 136s) ...
Presolve removed 1427956 rows and 1440931 columns
Presolve time: 136.05s
Presolved: 2893019 rows, 3697920 columns, 14695780 nonzeros
Extracted 2887248 lazy constraints
Variable types: 3686733 continuous, 11187 integer (2102 binary)

Root simplex log...

Iteration    Objective       Primal Inf.    Dual Inf.      Time
       0    9.0000000e+00   1.055789e+04   0.000000e+00    141s
    2060    2.0151974e+03   8.793347e+02   0.000000e+00    145s
    4360    2.0213262e+03   7.042048e+01   0.000000e+00    150s
    5454    2.0226038e+03   0.000000e+00   0.000000e+00    152s

Root relaxation: objective 2.022604e+03, 5454 iterations, 12.01 seconds (20.31 work units)

    Nodes    |    Current Node    |     Objective Bounds      |     Work
 Expl Unexpl |  Obj  Depth IntInf | Incumbent    BestBd   Gap | It/Node Time

     0     0 2022.60378    0  403          - 2022.60378      -     -  156s
     0     0 2465.34743    0  332          - 2465.34743      -     -  308s
     0     0 2465.54829    0  332          - 2465.54829      -     -  310s
     0     0 2518.44105    0  356          - 2518.44105      -     -  474s
     0     0 2522.13763    0  354          - 2522.13763      -     -  625s
     0     0 2522.72329    0  353          - 2522.72329      -     -  772s
     0     0 2642.42972    0  322          - 2642.42972      -     -  926s
### minRiskIncumbent = 10981.0 ; totalRisk = 11007
H    0     0                    10981.000000 2661.06579  75.8%     - 1058s
     0     0 2661.06579    0  333 10981.0000 2661.06579  75.8%     - 1058s
### minRiskIncumbent = 10975.0 ; totalRisk = 11007
H    0     0                    10975.000000 2662.76164  75.7%     - 1184s
     0     0 2662.76164    0  326 10975.0000 2662.76164  75.7%     - 1184s
     0     0 2663.90341    0  327 10975.0000 2663.90341  75.7%     - 1276s
     0     0 2664.19014    0  325 10975.0000 2664.19014  75.7%     - 1369s
     0     0 2720.14536    0  319 10975.0000 2720.14536  75.2%     - 1459s
     0     0 2720.49191    0  319 10975.0000 2720.49191  75.2%     - 1460s
     0     0 2726.54290    0  317 10975.0000 2726.54290  75.2%     - 1577s
     0     0 2728.61965    0  324 10975.0000 2728.61965  75.1%     - 1703s
     0     0 2728.66500    0  322 10975.0000 2728.66500  75.1%     - 1797s
     0     0 2753.21286    0  287 10975.0000 2753.21286  74.9%     - 1904s
     0     0 2753.54331    0  287 10975.0000 2753.54331  74.9%     - 1906s
     0     0 2759.36116    0  302 10975.0000 2759.36116  74.9%     - 2029s
     0     0 2759.91033    0  310 10975.0000 2759.91033  74.9%     - 2115s
     0     0 2760.82186    0  304 10975.0000 2760.82186  74.8%     - 2225s
     0     0 2760.88314    0  309 10975.0000 2760.88314  74.8%     - 2338s
     0     0 2771.42339    0  292 10975.0000 2771.42339  74.7%     - 2426s
     0     0 2772.55338    0  316 10975.0000 2772.55338  74.7%     - 2661s
     0     0 2772.71257    0  316 10975.0000 2772.71257  74.7%     - 2897s
     0     0 2778.04858    0  310 10975.0000 2778.04858  74.7%     - 3135s
     0     0 2778.27817    0  317 10975.0000 2778.27817  74.7%     - 3252s
     0     0 2783.29759    0  306 10975.0000 2783.29759  74.6%     - 3503s
     0     0 2784.14971    0  306 10975.0000 2784.14971  74.6%     - 3506s
     0     0 2784.19559    0  302 10975.0000 2784.19559  74.6%     - 3732s
     0     0 2784.23880    0  305 10975.0000 2784.23880  74.6%     - 3957s
     0     0 2791.82779    0  299 10975.0000 2791.82779  74.6%     - 4184s
     0     0 2792.04623    0  299 10975.0000 2792.04623  74.6%     - 4185s
     0     0 2792.04623    0  307 10975.0000 2792.04623  74.6%     - 4410s
     0     0 2793.38566    0  301 10975.0000 2793.38566  74.5%     - 4625s
     0     0 2793.58357    0  297 10975.0000 2793.58357  74.5%     - 4740s
     0     0 2794.06368    0  297 10975.0000 2794.06368  74.5%     - 4851s
     0     0 2794.06368    0  297 10975.0000 2794.06368  74.5%     - 4857s
     0     2 2794.06368    0  292 10975.0000 2794.06368  74.5%     - 5011s
     1     4 2794.28075    1  292 10975.0000 2794.06368  74.5%   103 5123s
     2     4 2794.06368    1  294 10975.0000 2794.06368  74.5%  70.5 5231s
     3     8 2794.64746    2  302 10975.0000 2794.06368  74.5%   138 5342s
     4     8 2794.34908    2  295 10975.0000 2794.07006  74.5%   177 5450s
     5     8 2794.42242    2  295 10975.0000 2794.35395  74.5%   204 5560s
     7    16 2795.31408    3  288 10975.0000 2794.35395  74.5%   213 5783s
    11    16 2794.88344    3  293 10975.0000 2794.46159  74.5%   265 6326s
    13    16 2795.11777    3  296 10975.0000 2794.70939  74.5%   258 6549s
    14    16 2795.07988    3  298 10975.0000 2794.74698  74.5%   263 6660s
    15    32 2795.97960    4  289 10975.0000 2794.74698  74.5%   260 6774s
    16    32 2796.09513    4  282 10975.0000 2794.75487  74.5%   271 6986s
    23    32 2795.15618    4  289 10975.0000 2794.84276  74.5%   247 7975s
    31    64 2796.56376    5  294 10975.0000 2795.02839  74.5%   231 9000s
    32    64 2798.39881    5  291 10975.0000 2795.02839  74.5%   233 9207s
    43    64 2796.46664    5  290 10975.0000 2795.02839  74.5%   207 10551s
    47    64 2795.52475    5  299 10975.0000 2795.15844  74.5%   198 11122s
    52    64 2795.86800    5  293 10975.0000 2795.48463  74.5%   189 11688s
    55    64 2796.32271    5  286 10975.0000 2795.48463  74.5%   194 12128s
    63    96 2797.03280    6  298 10975.0000 2795.48463  74.5%   189 13249s
    68    96 2796.79361    6  282 10975.0000 2795.48463  74.5%   184 13820s
    73    96 2795.90406    6  300 10975.0000 2795.48463  74.5%   181 14304s
    95   128 2797.36831    6  290 10975.0000 2795.49311  74.5%   158 17049s
    97   128 2798.78423    7  270 10975.0000 2795.49311  74.5%   159 17468s
   100   128 2799.03267    6  281 10975.0000 2795.49311  74.5%   160 17900s
   127   160 2798.28090    7  292 10975.0000 2795.60229  74.5%   149 20843s
   128   160 2801.46792    7  283 10975.0000 2795.60229  74.5%   148 21047s
   129   160 2799.82008    7  256 10975.0000 2795.60229  74.5%   147 21148s
   159   192 2798.79060    7  296 10975.0000 2795.68328  74.5%   135 24146s
   160   192 2802.01265    7  288 10975.0000 2795.68328  74.5%   134 24351s
   167   192 2797.66593    7  274 10975.0000 2795.68328  74.5%   131 25124s
   173   192 2799.14835    7  294 10975.0000 2795.68328  74.5%   133 25919s
   186   192 2799.42053    7  299 10975.0000 2795.68328  74.5%   130 27513s
   191   224 2798.28377    8  291 10975.0000 2795.68328  74.5%   130 28089s
   192   224 2801.80329    8  294 10975.0000 2795.68328  74.5%   131 28294s
   208   224 2796.29077   10  299 10975.0000 2795.68328  74.5%   128 30222s
   209   224 2797.09028    8  305 10975.0000 2795.68328  74.5%   129 30334s
   223   256 2799.66166    8  287 10975.0000 2795.68328  74.5%   126 31905s
   248   256 2801.38981    9  290 10975.0000 2795.68328  74.5%   126 35005s
   255   288 2798.29419    9  292 10975.0000 2795.68328  74.5%   123 35829s
   256   288 2801.99211    9  286 10975.0000 2795.68328  74.5%   123 36033s
   262   288 2798.23613    9  285 10975.0000 2795.68328  74.5%   122 36725s
   276   288 2799.76763    8  291 10975.0000 2795.68328  74.5%   120 38363s
   283   288 2799.49691   12  273 10975.0000 2795.68328  74.5%   120 39274s
   287   320 2798.90167    9  284 10975.0000 2795.68328  74.5%   119 39751s
   296   320 2798.92849    8  284 10975.0000 2795.68328  74.5%   119 40887s
